p cnf 48 284
c one port of a gate receives one connection
-1 -2 0
-1 -3 0
-1 -4 0
-5 -1 0
-3 -2 0
-5 -3 0
-5 -4 0
-6 -1 0
-4 -2 0
-6 -5 0
-4 -3 0
-6 -4 0
1 5 6 0
2 3 4 0
c one output of the circuit receives one connection
-7 -8 0
-9 -8 0
-9 -7 0
-10 -8 0
-10 -7 0
-10 -9 0
8 7 9 10 0
c input gate has input value
-11 0
12 0
-13 0
14 0
-15 0
16 0
-17 0
18 0
-19 0
-20 0
21 0
22 0
-23 0
-24 0
25 0
26 0
-27 0
-28 0
-29 0
-30 0
31 0
32 0
33 0
34 0
c internal gates produce calculated value
-5 -2 19 11 -35 36 0
-5 -2 19 11 35 -36 0
-5 -2 19 -11 -35 37 0
-5 -2 19 -11 35 -37 0
-5 -2 -19 11 -35 38 0
-5 -2 -19 11 35 -38 0
-5 -2 -19 -11 -35 39 0
-5 -2 -19 -11 35 -39 0
-5 -2 20 12 -40 36 0
-5 -2 20 12 40 -36 0
-5 -2 20 -12 -40 37 0
-5 -2 20 -12 40 -37 0
-5 -2 -20 12 -40 38 0
-5 -2 -20 12 40 -38 0
-5 -2 -20 -12 -40 39 0
-5 -2 -20 -12 40 -39 0
-5 -2 21 13 -41 36 0
-5 -2 21 13 41 -36 0
-5 -2 21 -13 -41 37 0
-5 -2 21 -13 41 -37 0
-5 -2 -21 13 -41 38 0
-5 -2 -21 13 41 -38 0
-5 -2 -21 -13 -41 39 0
-5 -2 -21 -13 41 -39 0
-5 -2 22 14 -42 36 0
-5 -2 22 14 42 -36 0
-5 -2 22 -14 -42 37 0
-5 -2 22 -14 42 -37 0
-5 -2 -22 14 -42 38 0
-5 -2 -22 14 42 -38 0
-5 -2 -22 -14 -42 39 0
-5 -2 -22 -14 42 -39 0
-5 -2 23 15 -43 36 0
-5 -2 23 15 43 -36 0
-5 -2 23 -15 -43 37 0
-5 -2 23 -15 43 -37 0
-5 -2 -23 15 -43 38 0
-5 -2 -23 15 43 -38 0
-5 -2 -23 -15 -43 39 0
-5 -2 -23 -15 43 -39 0
-5 -2 24 16 -44 36 0
-5 -2 24 16 44 -36 0
-5 -2 24 -16 -44 37 0
-5 -2 24 -16 44 -37 0
-5 -2 -24 16 -44 38 0
-5 -2 -24 16 44 -38 0
-5 -2 -24 -16 -44 39 0
-5 -2 -24 -16 44 -39 0
-5 -2 25 17 -45 36 0
-5 -2 25 17 45 -36 0
-5 -2 25 -17 -45 37 0
-5 -2 25 -17 45 -37 0
-5 -2 -25 17 -45 38 0
-5 -2 -25 17 45 -38 0
-5 -2 -25 -17 -45 39 0
-5 -2 -25 -17 45 -39 0
-5 -2 26 18 -46 36 0
-5 -2 26 18 46 -36 0
-5 -2 26 -18 -46 37 0
-5 -2 26 -18 46 -37 0
-5 -2 -26 18 -46 38 0
-5 -2 -26 18 46 -38 0
-5 -2 -26 -18 -46 39 0
-5 -2 -26 -18 46 -39 0
-6 -2 27 11 -35 36 0
-6 -2 27 11 35 -36 0
-6 -2 27 -11 -35 37 0
-6 -2 27 -11 35 -37 0
-6 -2 -27 11 -35 38 0
-6 -2 -27 11 35 -38 0
-6 -2 -27 -11 -35 39 0
-6 -2 -27 -11 35 -39 0
-6 -2 28 12 -40 36 0
-6 -2 28 12 40 -36 0
-6 -2 28 -12 -40 37 0
-6 -2 28 -12 40 -37 0
-6 -2 -28 12 -40 38 0
-6 -2 -28 12 40 -38 0
-6 -2 -28 -12 -40 39 0
-6 -2 -28 -12 40 -39 0
-6 -2 29 13 -41 36 0
-6 -2 29 13 41 -36 0
-6 -2 29 -13 -41 37 0
-6 -2 29 -13 41 -37 0
-6 -2 -29 13 -41 38 0
-6 -2 -29 13 41 -38 0
-6 -2 -29 -13 -41 39 0
-6 -2 -29 -13 41 -39 0
-6 -2 30 14 -42 36 0
-6 -2 30 14 42 -36 0
-6 -2 30 -14 -42 37 0
-6 -2 30 -14 42 -37 0
-6 -2 -30 14 -42 38 0
-6 -2 -30 14 42 -38 0
-6 -2 -30 -14 -42 39 0
-6 -2 -30 -14 42 -39 0
-6 -2 31 15 -43 36 0
-6 -2 31 15 43 -36 0
-6 -2 31 -15 -43 37 0
-6 -2 31 -15 43 -37 0
-6 -2 -31 15 -43 38 0
-6 -2 -31 15 43 -38 0
-6 -2 -31 -15 -43 39 0
-6 -2 -31 -15 43 -39 0
-6 -2 32 16 -44 36 0
-6 -2 32 16 44 -36 0
-6 -2 32 -16 -44 37 0
-6 -2 32 -16 44 -37 0
-6 -2 -32 16 -44 38 0
-6 -2 -32 16 44 -38 0
-6 -2 -32 -16 -44 39 0
-6 -2 -32 -16 44 -39 0
-6 -2 33 17 -45 36 0
-6 -2 33 17 45 -36 0
-6 -2 33 -17 -45 37 0
-6 -2 33 -17 45 -37 0
-6 -2 -33 17 -45 38 0
-6 -2 -33 17 45 -38 0
-6 -2 -33 -17 -45 39 0
-6 -2 -33 -17 45 -39 0
-6 -2 34 18 -46 36 0
-6 -2 34 18 46 -36 0
-6 -2 34 -18 -46 37 0
-6 -2 34 -18 46 -37 0
-6 -2 -34 18 -46 38 0
-6 -2 -34 18 46 -38 0
-6 -2 -34 -18 -46 39 0
-6 -2 -34 -18 46 -39 0
-6 -3 27 19 -35 36 0
-6 -3 27 19 35 -36 0
-6 -3 27 -19 -35 37 0
-6 -3 27 -19 35 -37 0
-6 -3 -27 19 -35 38 0
-6 -3 -27 19 35 -38 0
-6 -3 -27 -19 -35 39 0
-6 -3 -27 -19 35 -39 0
-6 -3 28 20 -40 36 0
-6 -3 28 20 40 -36 0
-6 -3 28 -20 -40 37 0
-6 -3 28 -20 40 -37 0
-6 -3 -28 20 -40 38 0
-6 -3 -28 20 40 -38 0
-6 -3 -28 -20 -40 39 0
-6 -3 -28 -20 40 -39 0
-6 -3 29 21 -41 36 0
-6 -3 29 21 41 -36 0
-6 -3 29 -21 -41 37 0
-6 -3 29 -21 41 -37 0
-6 -3 -29 21 -41 38 0
-6 -3 -29 21 41 -38 0
-6 -3 -29 -21 -41 39 0
-6 -3 -29 -21 41 -39 0
-6 -3 30 22 -42 36 0
-6 -3 30 22 42 -36 0
-6 -3 30 -22 -42 37 0
-6 -3 30 -22 42 -37 0
-6 -3 -30 22 -42 38 0
-6 -3 -30 22 42 -38 0
-6 -3 -30 -22 -42 39 0
-6 -3 -30 -22 42 -39 0
-6 -3 31 23 -43 36 0
-6 -3 31 23 43 -36 0
-6 -3 31 -23 -43 37 0
-6 -3 31 -23 43 -37 0
-6 -3 -31 23 -43 38 0
-6 -3 -31 23 43 -38 0
-6 -3 -31 -23 -43 39 0
-6 -3 -31 -23 43 -39 0
-6 -3 32 24 -44 36 0
-6 -3 32 24 44 -36 0
-6 -3 32 -24 -44 37 0
-6 -3 32 -24 44 -37 0
-6 -3 -32 24 -44 38 0
-6 -3 -32 24 44 -38 0
-6 -3 -32 -24 -44 39 0
-6 -3 -32 -24 44 -39 0
-6 -3 33 25 -45 36 0
-6 -3 33 25 45 -36 0
-6 -3 33 -25 -45 37 0
-6 -3 33 -25 45 -37 0
-6 -3 -33 25 -45 38 0
-6 -3 -33 25 45 -38 0
-6 -3 -33 -25 -45 39 0
-6 -3 -33 -25 45 -39 0
-6 -3 34 26 -46 36 0
-6 -3 34 26 46 -36 0
-6 -3 34 -26 -46 37 0
-6 -3 34 -26 46 -37 0
-6 -3 -34 26 -46 38 0
-6 -3 -34 26 46 -38 0
-6 -3 -34 -26 -46 39 0
-6 -3 -34 -26 46 -39 0
c outputs match truth table
-8 -11 0
-7 -19 0
-9 -27 0
-10 -35 0
-8 -12 0
-7 -20 0
-9 -28 0
-10 -40 0
-8 -13 0
-7 -21 0
-9 -29 0
-10 -41 0
-8 -14 0
-7 -22 0
-9 -30 0
-10 -42 0
-8 -15 0
-7 -23 0
-9 -31 0
-10 -43 0
-8 -16 0
-7 -24 0
-9 -32 0
-10 -44 0
-8 -17 0
-7 -25 0
-9 -33 0
-10 -45 0
-8 18 0
-7 26 0
-9 34 0
-10 46 0
c internal gates restricted to a subset of functions
36 37 38 39 0
36 37 -38 39 0
36 37 -38 -39 0
36 -37 38 39 0
36 -37 38 -39 0
36 -37 -38 39 0
-36 37 38 39 0
-36 37 38 -39 0
-36 37 -38 -39 0
-36 -37 38 39 0
-36 -37 38 -39 0
-36 -37 -38 39 0
-36 -37 -38 -39 0
c a gate has exactly one depth
-48 -47 0
47 48 0
c gates output to ones at larger depths
c variable names:
c c_3_0_0 1
c c_3_1_0 2
c c_3_1_1 3
c c_3_1_2 4
c c_3_0_1 5
c c_3_0_2 6
c o_1_0 7
c o_0_0 8
c o_2_0 9
c o_3_0 10
c v_0_0 11
c v_0_1 12
c v_0_2 13
c v_0_3 14
c v_0_4 15
c v_0_5 16
c v_0_6 17
c v_0_7 18
c v_1_0 19
c v_1_1 20
c v_1_2 21
c v_1_3 22
c v_1_4 23
c v_1_5 24
c v_1_6 25
c v_1_7 26
c v_2_0 27
c v_2_1 28
c v_2_2 29
c v_2_3 30
c v_2_4 31
c v_2_5 32
c v_2_6 33
c v_2_7 34
c v_3_0 35
c t_3_0_0 36
c t_3_0_1 37
c t_3_1_0 38
c t_3_1_1 39
c v_3_1 40
c v_3_2 41
c v_3_3 42
c v_3_4 43
c v_3_5 44
c v_3_6 45
c v_3_7 46
c d_3_0 47
c d_3_1 48
